NAME: sample_cities
TYPE: TSP
COMMENT: Sample TSP dataset with 10 cities
DIMENSION: 10
EDGE_WEIGHT_TYPE: EUC_2D
NODE_COORD_SECTION
1 60.0 200.0
2 180.0 200.0
3 80.0 180.0
4 140.0 180.0
5 20.0 160.0
6 100.0 160.0
7 200.0 160.0
8 140.0 140.0
9 40.0 120.0
10 120.0 120.0
EOF
